proyfinal/src/viki/013/andrea/andrea-localstore/experimentInOfficeAgust.take6/worker_4/9fcbfa9e-3702-452e-b062-12abfc8b8863.als.cnf.out
Reading from standard input... Use '--help' for help.
============================[ Problem Statistics ]=============================
|                                                                             |
|  Number of variables:         87638                                         |
|  Number of clauses:          161767                                         |
|  Parse time:                   0.03 s                                       |
|                                                                             |
============================[ Search Statistics ]==============================
| Conflicts |          ORIGINAL         |          LEARNT          | Progress |
|           |    Vars  Clauses Literals |    Limit  Clauses Lit/Cl |          |
===============================================================================
|       100 |   62386   105164   262792 |    38560      100     10 | 28.814 % |
|       250 |   62349   105018   262442 |    42416      248     17 | 28.856 % |
|       475 |   62332   104950   262279 |    46657      471     31 | 28.876 % |
|       812 |   62263   104670   261622 |    51323      763     50 | 28.954 % |
|      1318 |   62263   104670   261622 |    56455     1269     78 | 28.954 % |
|      2077 |   62263   104670   261622 |    62101     2028    103 | 28.954 % |
|      3216 |   62145   104200   260504 |    68311     3156    101 | 29.089 % |
|      4924 |   62145   104200   260504 |    75142     4864    109 | 29.089 % |
|      7486 |   62127   104088   260251 |    82657     7065    103 | 29.110 % |
|     11330 |   62127   104088   260251 |    90922    10909    110 | 29.110 % |
===============================================================================
restarts              : 53
conflicts             : 12077          (6145 /sec)
decisions             : 43919          (0.00 % random) (22347 /sec)
propagations          : 18856469       (9594444 /sec)
conflict literals     : 1316549        (51.94 % deleted)
Memory used           : 28.97 MB
CPU time              : 1.96535 s

UNSATISFIABLE
